200
200
139
139
139
138
138
137
137
137
137
137
136
136
135
135
135
134
133
133
133
133
132
132
132
131
131
129
128
126
125
123
123
122
121
121
121
120
120
120
119
119
118
117
116
116
115
115
115
114
114
114
113
113
111
111
110
108
107
107
107
106
105
104
104
103
102
101
100
99
98
98
98
97
97
96
96
94
92
91
91
91
90
89
89
88
88
87
87
87
87
85
85
84
84
83
83
82
82
81
81
81
81
80
79
77
77
76
76
75
74
74
73
73
73
70
70
70
70
69
69
68
67
66
66
66
66
65
65
64
63
63
63
63
62
62
62
61
60
60
59
58
57
57
56
55
55
54
53
53
53
53
53
53
52
52
52
50
50
49
49
47
47
47
47
47
46
46
46
44
43
43
41
41
40
38
37
37
35
33
32
31
31
31
29
28
28
26
25
24
24
24
24
23
23
21
21
21
21
20
20
20
